100 10
550 456
334 456
141 147
363 304
571 559
121 797
704 642
352 537
688 635
729 230
553 325
213 344
513 157
411 202
332 573
746 514
558 307
577 553
741 339
499 500
362 538
335 394
121 417
473 681
469 543
255 528
244 223
852 196
350 651
770 221
789 503
494 195
180 673
531 276
137 593
393 570
704 707
234 397
561 556
458 435
358 174
655 225
107 496
406 621
406 290
144 364
542 119
305 169
840 365
82 328
676 321
292 533
121 610
386 279
140 577
539 751
232 539
319 601
134 440
334 159
660 509
731 524
393 254
394 253
782 653
527 331
517 437
316 249
678 131
762 290
424 606
767 368
544 419
693 252
447 538
643 510
510 740
721 473
602 459
247 503
146 262
682 120
515 119
447 732
128 711
78 247
444 483
750 722
222 496
285 610
184 250
419 659
440 461
814 364
482 466
801 563
485 462
548 578
416 302
856 301
